% File represents an instance of a Composite Structure problem to be solved by a CP framework
% Created on 2025-03-26 10:41:41.885
T = 50;
n = 25;
m = 40;
edges = [(1, 2),
(6, 7),
(11, 12),
(16, 17),
(21, 22),
(2, 3),
(7, 8),
(12, 13),
(17, 18),
(22, 23),
(3, 4),
(8, 9),
(13, 14),
(19, 18),
(23, 24),
(5, 4),
(10, 9),
(14, 15),
(19, 20),
(25, 24),
(1, 6),
(6, 11),
(11, 16),
(16, 21),
(2, 7),
(7, 12),
(12, 17),
(22, 17),
(3, 8),
(8, 13),
(13, 18),
(23, 18),
(4, 9),
(9, 14),
(14, 19),
(19, 24),
(5, 10),
(10, 15),
(15, 20),
(25, 20)];
counts = [|6, 22, 6, 16,
|6, 16, 6, 16,
|6, 10, 6, 16,
|6, 8, 6, 12,
|6, 10, 6, 12,
|4, 20, 4, 16,
|4, 14, 4, 16,
|4, 8, 4, 16,
|4, 8, 4, 12,
|4, 10, 4, 12,
|4, 14, 4, 16,
|4, 12, 4, 12,
|4, 8, 4, 12,
|4, 6, 4, 12,
|4, 6, 4, 10,
|4, 14, 4, 10,
|4, 8, 4, 10,
|4, 4, 4, 10,
|4, 6, 4, 10,
|4, 4, 4, 10,
|4, 12, 4, 10,
|4, 10, 4, 10,
|4, 8, 4, 10,
|4, 4, 4, 10,
|4, 4, 4, 12|];
